nNurses = 193;
nHours = 26;
minHours = 4;
maxHours = 18;
maxConsec = 6;
maxPresence = 21;
demand = [6, 11, 13, 12, 14, 14, 14, 12, 9, 14, 17, 22, 23, 24, 20, 24, 25, 30, 34, 39, 36, 33, 34, 31, 27, 31];
